40
7
5
1
36 30
100 45
130 50
40 130
70 110
135 100
36 30
100 45
130 50
40 130
70 110
135 100
27 114
83 44
85 108
47 122
22 73
46 71
46 99
100 139
150 121
6 145
72 1
96 94
140 152
115 10
113 121
37 82
6 15
121 3
54 133
40 73
105 43
125 7
152 68
102 105
100 109
133 74
159 153
63 6
112 47
137 15
35 73
91 19
84 35
16 72
102 158
7 100
136 27
137 54
155 30
137 148
